1 1 2 0
1 -1 3 0
1 -1 4 0
1 2 5 0
1 -2 3 0
1 2 -4 0
1 -2 -6 0
1 7 -8 0
1 7 -9 0
1 8 -4 0
1 -8 -7 0
1 4 -8 0
1 4 -10 0
1 4 -9 0
1 -9 11 0
1 -9 12 0
1 9 -8 0
1 9 -2 0
1 9 4 0
1 9 -13 0
1 9 14 0
1 -9 15 0
1 -3 2 0
1 -3 16 0
1 -6 17 0
1 6 -3 0
1 -6 18 0
1 -6 7 0
1 15 -19 0
1 -15 4 0
1 -15 20 0
1 -15 9 0
1 21 22 0
1 21 -15 0
1 -14 -23 0
1 -14 4 0
1 -14 24 0
1 -14 -25 0
1 14 -18 0
1 12 14 0
1 12 -9 0
1 -25 -8 0
1 25 -26 0
1 -25 27 0
1 25 -14 0
1 25 7 0
1 -19 12 0
1 19 -28 0
1 -19 26 0
1 19 15 0
1 -24 22 0
1 -24 -21 0
1 24 14 0
1 24 7 0
1 -22 -29 0
1 22 -13 0
1 -30 -19 0
1 -30 -31 0
1 32 -33 0
1 33 -34 0
1 -34 32 0
1 34 -35 0
1 -23 -12 0
1 -23 26 0
1 -31 -14 0
1 36 30 0
1 36 37 0
1 36 31 0
1 38 39 0
1 -38 5 0
1 38 -40 0
1 5 40 0
1 -5 -38 0
1 41 -39 0
1 41 42 0
1 -41 43 0
1 -41 44 0
1 43 39 0
1 -43 42 0
1 39 -45 0
1 39 46 0
1 -39 -43 0
1 -39 5 0
1 -39 47 0
1 -39 -18 0
1 39 38 0
1 44 -20 0
1 44 41 0
1 48 47 0
1 40 49 0
1 -40 -50 0
1 -40 47 0
1 -40 -51 0
1 -20 -39 0
1 20 -46 0
1 -20 52 0
1 20 -53 0
1 46 42 0
1 -46 50 0
1 -46 -44 0
1 18 -54 0
1 -18 -3 0
1 -18 -52 0
1 -18 14 0
1 18 55 0
1 -17 -39 0
1 17 -56 0
1 -17 -3 0
1 -17 -52 0
1 56 -57 0
1 56 43 0
1 -56 -58 0
1 53 -59 0
1 53 60 0
1 53 -17 0
1 -53 56 0
1 -53 -41 0
1 42 61 0
1 42 -49 0
1 -42 -43 0
1 42 62 0
1 42 52 0
1 -42 18 0
1 52 59 0
1 52 49 0
1 52 42 0
1 -52 -63 0
1 52 64 0
1 52 41 0
1 -13 -65 0
1 13 24 0
1 -13 26 0
1 13 -6 0
1 -13 -9 0
1 65 13 0
1 -65 6 0
1 -58 11 0
1 -58 -22 0
1 -58 -54 0
1 -58 16 0
1 58 -32 0
1 60 22 0
1 60 56 0
1 -60 -66 0
1 -67 68 0
1 -67 -69 0
1 -67 -70 0
1 69 -60 0
1 69 -65 0
1 69 28 0
1 69 -71 0
1 69 13 0
1 54 -59 0
1 54 72 0
1 54 -73 0
1 28 67 0
1 -28 -25 0
1 74 -19 0
1 74 67 0
1 74 -28 0
1 74 24 0
1 74 31 0
1 68 11 0
1 68 10 0
1 70 -75 0
1 -70 76 0
1 -70 27 0
1 -70 -77 0
1 10 -74 0
1 11 -78 0
1 -11 60 0
1 11 37 0
1 11 -68 0
1 -11 -70 0
1 11 74 0
1 -16 79 0
1 -16 -72 0
1 16 -80 0
1 -16 -81 0
1 16 77 0
1 -77 -60 0
1 -77 81 0
1 37 36 0
1 -37 -10 0
1 37 31 0
1 37 -34 0
1 -37 35 0
1 35 -75 0
1 35 -36 0
1 -35 -27 0
1 82 -75 0
1 82 -10 0
1 -82 83 0
1 84 29 0
1 84 75 0
1 84 83 0
1 27 75 0
1 27 -25 0
1 27 85 0
1 -27 -70 0
1 75 86 0
1 75 87 0
1 -75 27 0
1 -75 -84 0
1 -76 -88 0
1 -76 -82 0
1 76 37 0
1 -76 68 0
1 -76 -89 0
1 76 90 0
1 -29 -22 0
1 -29 -91 0
1 -92 93 0
1 -92 94 0
1 95 96 0
1 -87 86 0
1 -87 -93 0
1 83 86 0
1 -83 -96 0
1 -83 -87 0
1 83 -97 0
1 96 -98 0
1 96 -23 0
1 -96 -84 0
1 -94 -99 0
1 94 -88 0
1 94 93 0
1 94 -82 0
1 -94 100 0
1 93 -99 0
1 -93 -82 0
1 101 5 0
1 101 -102 0
1 101 -103 0
1 -104 -105 0
1 104 -106 0
1 104 -107 0
1 -108 43 0
1 108 -109 0
1 -108 106 0
1 -108 110 0
1 102 -111 0
1 102 -112 0
1 102 55 0
1 -102 -113 0
1 102 -51 0
1 -102 -103 0
1 -112 102 0
1 112 55 0
1 -112 -51 0
1 112 103 0
1 -106 114 0
1 106 -108 0
1 -106 -101 0
1 106 -115 0
1 106 -104 0
1 -116 -106 0
1 116 -117 0
1 -51 112 0
1 -51 40 0
1 51 -102 0
1 51 -20 0
1 -51 110 0
1 -50 -112 0
1 50 -110 0
1 -50 -102 0
1 55 -118 0
1 55 112 0
1 -55 105 0
1 -55 -119 0
1 55 115 0
1 55 -120 0
1 -118 105 0
1 -118 -109 0
1 -118 121 0
1 -118 40 0
1 -118 55 0
1 107 -122 0
1 107 -49 0
1 107 109 0
1 107 -123 0
1 -107 -63 0
1 107 -104 0
1 -109 -61 0
1 -109 49 0
1 -109 -50 0
1 -109 -108 0
1 109 -55 0
1 -110 122 0
1 -110 118 0
1 110 123 0
1 110 -124 0
1 110 -104 0
1 -105 124 0
1 47 39 0
1 47 49 0
1 47 121 0
1 -47 120 0
1 -49 -125 0
1 -49 -42 0
1 -49 121 0
1 63 -126 0
1 -63 109 0
1 63 -119 0
1 -63 121 0
1 -61 -125 0
1 61 127 0
1 61 -42 0
1 61 107 0
1 61 120 0
1 125 59 0
1 125 128 0
1 -125 129 0
1 125 63 0
1 125 -55 0
1 -125 130 0
1 -121 59 0
1 121 -49 0
1 121 -118 0
1 121 -131 0
1 121 62 0
1 -121 -47 0
1 -121 55 0
1 -121 -132 0
1 120 -119 0
1 -120 -132 0
1 119 -122 0
1 -119 61 0
1 -119 -49 0
1 119 -129 0
1 -119 -120 0
1 -62 -42 0
1 -62 56 0
1 -62 -66 0
1 -59 122 0
1 59 45 0
1 -59 42 0
1 59 56 0
1 59 -54 0
1 -59 -133 0
1 59 -52 0
1 73 126 0
1 73 -57 0
1 -73 121 0
1 73 64 0
1 130 73 0
1 -130 -121 0
1 -130 -134 0
1 130 64 0
1 -45 59 0
1 45 61 0
1 -45 135 0
1 45 73 0
1 -45 -136 0
1 -45 -137 0
1 -45 130 0
1 -133 -45 0
1 133 -72 0
1 133 73 0
1 133 62 0
1 -133 -63 0
1 126 -138 0
1 126 -63 0
1 126 139 0
1 134 -59 0
1 -134 -61 0
1 134 73 0
1 134 -139 0
1 134 -130 0
1 -72 140 0
1 -72 67 0
1 -72 129 0
1 72 -133 0
1 -72 141 0
1 -72 -66 0
1 81 -45 0
1 -81 54 0
1 -81 -67 0
1 -81 -64 0
1 81 -141 0
1 81 -132 0
1 142 143 0
1 142 -57 0
1 -142 82 0
1 -142 144 0
1 -142 -133 0
1 -142 -71 0
1 137 45 0
1 137 140 0
1 -137 16 0
1 137 143 0
1 57 -145 0
1 57 -142 0
1 141 -91 0
1 141 -79 0
1 -141 -72 0
1 -141 -73 0
1 141 -146 0
1 -141 -53 0
1 141 -137 0
1 -141 -81 0
1 -140 -147 0
1 140 146 0
1 -140 -148 0
1 64 149 0
1 64 -146 0
1 -64 -148 0
1 64 -81 0
1 79 11 0
1 -79 -141 0
1 -79 -71 0
1 150 -79 0
1 -150 -95 0
1 -150 -141 0
1 -150 -71 0
1 -91 86 0
1 -91 -144 0
1 -91 -76 0
1 91 141 0
1 91 143 0
1 -90 144 0
1 90 80 0
1 -90 -87 0
1 90 -71 0
1 144 -91 0
1 144 79 0
1 -144 -90 0
1 144 -150 0
1 71 -99 0
1 -71 -88 0
1 -71 91 0
1 -71 79 0
1 -71 -144 0
1 71 151 0
1 -71 -152 0
1 153 154 0
1 153 -150 0
1 143 -91 0
1 143 -142 0
1 -143 -151 0
1 -143 -155 0
1 -88 93 0
1 -88 -144 0
1 -156 78 0
1 -156 75 0
1 156 144 0
1 -156 -27 0
1 -99 -157 0
1 99 158 0
1 -99 -159 0
1 -99 89 0
1 -99 -94 0
1 158 80 0
1 158 159 0
1 158 94 0
1 159 78 0
1 159 -160 0
1 -78 11 0
1 -78 -161 0
1 78 -158 0
1 -80 99 0
1 -80 88 0
1 -80 -91 0
1 -80 -16 0
1 -80 -162 0
1 -80 -90 0
1 163 -164 0
1 163 -80 0
1 98 165 0
1 -98 -96 0
1 98 166 0
1 -98 -89 0
1 -98 83 0
1 -166 98 0
1 -166 93 0
1 -166 -151 0
1 166 -159 0
1 167 161 0
1 167 168 0
1 161 -169 0
1 161 100 0
1 85 170 0
1 85 158 0
1 -85 27 0
1 85 171 0
1 -85 167 0
1 -165 -99 0
1 -165 172 0
1 -165 161 0
1 -165 -158 0
1 -89 -99 0
1 -89 -173 0
1 -89 -164 0
1 89 -166 0
1 -89 158 0
1 89 174 0
1 173 -99 0
1 -173 161 0
1 -173 175 0
1 -176 177 0
1 -172 -85 0
1 -172 97 0
1 -172 176 0
1 178 -170 0
1 178 -177 0
1 178 -97 0
1 -170 97 0
1 -170 169 0
1 170 -179 0
1 -170 -85 0
1 97 -170 0
1 97 -172 0
1 -97 -176 0
1 97 167 0
1 177 97 0
1 -177 180 0
1 -177 -161 0
1 177 -181 0
1 -177 167 0
1 100 169 0
1 -100 -181 0
1 -100 -176 0
1 -169 -180 0
1 169 -93 0
1 -169 -182 0
1 169 178 0
1 -169 -167 0
1 -183 -184 0
1 183 -185 0
1 183 -186 0
1 -187 188 0
1 -187 -189 0
1 -187 190 0
1 -187 191 0
1 187 -192 0
1 -188 -184 0
1 188 -185 0
1 -188 -190 0
1 188 193 0
1 188 187 0
1 188 -194 0
1 -185 187 0
1 -193 -195 0
1 -193 -185 0
1 -193 196 0
1 -193 -117 0
1 193 187 0
1 193 -183 0
1 -184 195 0
1 -184 197 0
1 -184 198 0
1 -184 -183 0
1 190 195 0
1 190 199 0
1 190 196 0
1 190 -187 0
1 117 116 0
1 117 200 0
1 -117 201 0
1 -117 -193 0
1 -117 202 0
1 -117 -194 0
1 -200 185 0
1 200 -189 0
1 -115 -203 0
1 115 204 0
1 -115 -55 0
1 115 194 0
1 203 -185 0
1 -203 201 0
1 203 193 0
1 -203 191 0
1 201 205 0
1 -201 -206 0
1 -201 194 0
1 -194 124 0
1 194 -187 0
1 -189 188 0
1 -189 -206 0
1 -189 -187 0
1 191 200 0
1 -191 189 0
1 191 -196 0
1 -191 187 0
1 -207 204 0
1 -207 -106 0
1 -207 196 0
1 -207 -194 0
1 -111 195 0
1 -111 112 0
1 111 -204 0
1 -111 207 0
1 -124 208 0
1 -124 -127 0
1 -124 -105 0
1 127 -209 0
1 -127 -210 0
1 127 211 0
1 127 -124 0
1 127 110 0
1 204 127 0
1 212 -122 0
1 -212 213 0
1 -212 -123 0
1 212 -204 0
1 212 -207 0
1 -211 -214 0
1 211 -111 0
1 211 203 0
1 -211 206 0
1 211 -215 0
1 208 -214 0
1 208 216 0
1 208 217 0
1 123 -206 0
1 -122 218 0
1 -122 -123 0
1 122 113 0
1 -219 210 0
1 219 -119 0
1 219 -204 0
1 220 210 0
1 220 221 0
1 -220 -204 0
1 220 222 0
1 -113 124 0
1 113 -132 0
1 -218 -219 0
1 218 123 0
1 -218 223 0
1 -114 127 0
1 -114 -219 0
1 -114 -215 0
1 114 220 0
1 210 -116 0
1 -210 124 0
1 210 223 0
1 129 -125 0
1 -129 126 0
1 129 224 0
1 129 221 0
1 129 113 0
1 -129 -222 0
1 -129 132 0
1 132 224 0
1 132 -119 0
1 -132 -129 0
1 132 134 0
1 132 -225 0
1 138 126 0
1 -138 -142 0
1 138 221 0
1 -138 226 0
1 -138 -134 0
1 -138 139 0
1 139 218 0
1 -139 -221 0
1 -139 -227 0
1 139 137 0
1 139 228 0
1 225 -229 0
1 -225 -147 0
1 -225 138 0
1 225 -148 0
1 -221 229 0
1 221 -149 0
1 -221 -147 0
1 221 109 0
1 -221 230 0
1 221 148 0
1 -222 -224 0
1 222 -110 0
1 222 219 0
1 224 229 0
1 224 -105 0
1 224 -231 0
1 -224 -222 0
1 224 220 0
1 -147 227 0
1 147 131 0
1 -147 64 0
1 136 128 0
1 -136 227 0
1 -136 -228 0
1 -149 -135 0
1 149 91 0
1 -149 232 0
1 -149 221 0
1 149 -131 0
1 149 -225 0
1 -148 -221 0
1 148 -227 0
1 148 233 0
1 -148 64 0
1 148 90 0
1 -148 -225 0
1 128 234 0
1 -128 -145 0
1 -128 149 0
1 -128 -155 0
1 -128 -146 0
1 128 -136 0
1 131 -128 0
1 -131 235 0
1 -131 -157 0
1 -131 -145 0
1 -131 -149 0
1 131 -138 0
1 131 -236 0
1 131 139 0
1 -228 -237 0
1 -228 -149 0
1 228 238 0
1 228 -120 0
1 -227 -138 0
1 -227 230 0
1 227 -136 0
1 227 -228 0
1 145 128 0
1 -145 88 0
1 145 153 0
1 145 146 0
1 -145 -233 0
1 145 143 0
1 146 153 0
1 -146 -233 0
1 146 141 0
1 157 -239 0
1 157 240 0
1 157 -241 0
1 -157 153 0
1 -157 -242 0
1 157 143 0
1 155 -135 0
1 -155 131 0
1 155 158 0
1 -135 145 0
1 135 -149 0
1 135 -243 0
1 135 244 0
1 -135 151 0
1 135 155 0
1 233 -145 0
1 -233 243 0
1 -233 151 0
1 239 245 0
1 -239 -243 0
1 242 -235 0
1 -242 157 0
1 242 239 0
1 -242 243 0
1 -242 148 0
1 -246 -240 0
1 -246 241 0
1 246 -153 0
1 -246 -144 0
1 -246 -143 0
1 -246 163 0
1 151 246 0
1 -151 -135 0
1 -151 240 0
1 -151 -144 0
1 151 -166 0
1 151 -238 0
1 168 -241 0
1 -244 -168 0
1 -244 -247 0
1 -244 233 0
1 -244 152 0
1 241 248 0
1 -241 57 0
1 241 164 0
1 241 -249 0
1 241 168 0
1 248 164 0
1 -248 -151 0
1 -248 -155 0
1 -248 -175 0
1 -248 -168 0
1 240 249 0
1 250 -246 0
1 250 -157 0
1 -250 240 0
1 250 -243 0
1 250 -64 0
1 250 251 0
1 -250 -252 0
1 -250 -168 0
1 -175 -80 0
1 175 159 0
1 -175 -89 0
1 -175 253 0
1 -164 254 0
1 -164 80 0
1 164 253 0
1 -164 -175 0
1 -174 -255 0
1 174 -241 0
1 -174 -154 0
1 -174 162 0
1 -174 -89 0
1 -174 252 0
1 -179 -256 0
1 179 255 0
1 179 -173 0
1 179 -154 0
1 179 -253 0
1 179 -162 0
1 179 160 0
1 -179 -152 0
1 254 -179 0
1 254 -164 0
1 -254 144 0
1 254 -175 0
1 -152 244 0
1 -152 -254 0
1 152 -174 0
1 152 -257 0
1 154 -179 0
1 -154 -244 0
1 -154 -258 0
1 154 174 0
1 -253 259 0
1 -253 -154 0
1 -253 258 0
1 -253 -260 0
1 253 -261 0
1 -171 256 0
1 -171 -255 0
1 171 85 0
1 -262 173 0
1 262 -254 0
1 -262 162 0
1 262 -85 0
1 263 -264 0
1 263 -265 0
1 263 -169 0
1 -263 -160 0
1 263 -266 0
1 -265 -267 0
1 265 254 0
1 265 -160 0
1 -265 263 0
1 160 -255 0
1 -160 -262 0
1 160 -159 0
1 255 -268 0
1 -255 -78 0
1 255 -269 0
1 -255 181 0
1 -255 -174 0
1 162 256 0
1 162 270 0
1 162 262 0
1 -162 271 0
1 162 -272 0
1 162 258 0
1 -162 -171 0
1 256 268 0
1 256 -265 0
1 256 -171 0
1 181 -177 0
1 181 -100 0
1 273 274 0
1 273 255 0
1 273 266 0
1 274 -275 0
1 -274 276 0
1 274 -277 0
1 278 -180 0
1 -278 275 0
1 278 -279 0
1 278 -280 0
1 278 -85 0
1 278 281 0
1 275 -180 0
1 275 165 0
1 275 278 0
1 -275 282 0
1 266 274 0
1 -266 265 0
1 266 273 0
1 -266 -89 0
1 -266 -283 0
1 264 -173 0
1 -264 -284 0
1 -285 182 0
1 -285 286 0
1 286 275 0
1 286 -287 0
1 280 -276 0
1 280 -278 0
1 281 284 0
1 -287 288 0
1 287 -280 0
1 -276 -177 0
1 -276 281 0
1 -276 -286 0
1 -277 -289 0
1 277 279 0
1 277 290 0
1 -277 -291 0
1 -277 292 0
1 -182 -288 0
1 182 -291 0
1 182 277 0
1 -182 281 0
1 293 -294 0
1 -293 -183 0
1 -295 -294 0
1 295 -186 0
1 -295 296 0
1 192 -297 0
1 -192 298 0
1 -192 299 0
1 -298 -294 0
1 298 299 0
1 -298 -296 0
1 -298 300 0
1 294 -293 0
1 294 -192 0
1 299 -294 0
1 -299 295 0
1 299 -301 0
1 299 198 0
1 -299 192 0
1 -296 293 0
1 296 192 0
1 -296 -302 0
1 -303 -293 0
1 303 -304 0
1 202 294 0
1 202 297 0
1 -202 -305 0
1 -202 299 0
1 202 -306 0
1 202 190 0
1 -305 -297 0
1 -305 200 0
1 -305 -184 0
1 -305 299 0
1 -305 190 0
1 198 -294 0
1 198 -307 0
1 -198 306 0
1 198 -308 0
1 199 -309 0
1 -199 -203 0
1 -199 307 0
1 199 -306 0
1 199 -190 0
1 -297 199 0
1 -297 -298 0
1 297 300 0
1 297 -198 0
1 297 -202 0
1 -300 297 0
1 300 209 0
1 -300 199 0
1 -300 -196 0
1 -300 198 0
1 300 -192 0
1 309 310 0
1 -309 -305 0
1 309 311 0
1 309 -198 0
1 306 309 0
1 -306 310 0
1 -306 312 0
1 -306 -311 0
1 306 198 0
1 -306 202 0
1 -306 -192 0
1 -196 195 0
1 196 -307 0
1 -196 185 0
1 -196 -207 0
1 196 -191 0
1 195 -313 0
1 -195 -314 0
1 -195 -196 0
1 195 -193 0
1 -315 307 0
1 -315 -314 0
1 315 -191 0
1 -209 -316 0
1 209 300 0
1 209 315 0
1 307 -214 0
1 -307 -209 0
1 -307 199 0
1 307 317 0
1 307 -198 0
1 -314 -217 0
1 -314 315 0
1 -314 -198 0
1 -313 -318 0
1 313 310 0
1 -313 209 0
1 313 -319 0
1 313 311 0
1 -313 -308 0
1 -313 -320 0
1 308 -321 0
1 -206 208 0
1 -206 307 0
1 -206 -123 0
1 206 -211 0
1 206 314 0
1 206 -191 0
1 -216 -307 0
1 -216 211 0
1 -216 -322 0
1 -216 191 0
1 216 194 0
1 -217 214 0
1 -217 323 0
1 217 307 0
1 -217 -316 0
1 -217 -219 0
1 217 -211 0
1 -217 -314 0
1 217 -324 0
1 -214 -323 0
1 214 -314 0
1 -214 -220 0
1 -316 -325 0
1 316 -217 0
1 316 -315 0
1 -322 214 0
1 322 -316 0
1 322 -206 0
1 322 -326 0
1 322 215 0
1 197 209 0
1 -197 327 0
1 197 -315 0
1 328 -329 0
1 -328 -317 0
1 -328 -217 0
1 -328 315 0
1 328 -330 0
1 328 -320 0
1 -325 -211 0
1 -325 215 0
1 -215 323 0
1 -215 -212 0
1 215 210 0
1 215 211 0
1 215 -204 0
1 215 114 0
1 215 320 0
1 -226 -323 0
1 226 331 0
1 226 -138 0
1 332 -316 0
1 -332 -333 0
1 332 114 0
1 332 -322 0
1 -332 324 0
1 -205 201 0
1 205 332 0
1 323 -214 0
1 323 -325 0
1 323 -332 0
1 333 334 0
1 333 335 0
1 333 217 0
1 -333 -336 0
1 -333 -332 0
1 -324 337 0
1 231 -218 0
1 -223 -210 0
1 223 231 0
1 -223 -205 0
1 -223 -338 0
1 -223 -339 0
1 -223 -136 0
1 -223 340 0
1 -232 -331 0
1 -232 341 0
1 -232 -342 0
1 232 205 0
1 232 338 0
1 343 331 0
1 343 344 0
1 -339 345 0
1 339 -229 0
1 339 346 0
1 -213 345 0
1 213 347 0
1 -213 232 0
1 213 226 0
1 213 -230 0
1 -338 348 0
1 -338 332 0
1 -331 -349 0
1 331 350 0
1 331 -334 0
1 -331 -231 0
1 -229 213 0
1 229 -145 0
1 229 227 0
1 -229 -344 0
1 -230 213 0
1 230 -229 0
1 230 351 0
1 230 224 0
1 230 221 0
1 -230 146 0
1 230 352 0
1 345 157 0
1 345 -351 0
1 -345 -353 0
1 345 -344 0
1 345 354 0
1 -346 -345 0
1 346 351 0
1 346 -353 0
1 -346 -227 0
1 346 -341 0
1 344 351 0
1 344 247 0
1 -344 238 0
1 344 346 0
1 344 230 0
1 344 -113 0
1 344 -355 0
1 351 -218 0
1 351 -238 0
1 341 -356 0
1 -356 349 0
1 356 -341 0
1 -356 357 0
1 235 -349 0
1 235 239 0
1 235 -351 0
1 235 -353 0
1 -235 344 0
1 235 228 0
1 238 353 0
1 -238 -358 0
1 -238 -359 0
1 -238 -344 0
1 238 354 0
1 245 -234 0
1 245 -239 0
1 -245 -247 0
1 245 -236 0
1 245 354 0
1 247 245 0
1 247 -234 0
1 -247 239 0
1 -247 351 0
1 247 -244 0
1 247 242 0
1 -247 344 0
1 360 -245 0
1 360 358 0
1 360 -238 0
1 -360 346 0
1 -358 245 0
1 -358 345 0
1 358 361 0
1 -358 362 0
1 358 252 0
1 358 360 0
1 -354 -245 0
1 354 235 0
1 354 353 0
1 354 -247 0
1 -354 -238 0
1 354 -222 0
1 354 363 0
1 353 224 0
1 353 238 0
1 -353 -346 0
1 -353 -363 0
1 243 -234 0
1 -243 240 0
1 243 -357 0
1 -243 -360 0
1 -252 -364 0
1 252 -174 0
1 -252 363 0
1 365 237 0
1 365 -234 0
1 -365 240 0
1 365 -252 0
1 -234 366 0
1 -234 -247 0
1 234 236 0
1 234 -249 0
1 -234 -252 0
1 236 -259 0
1 -236 -243 0
1 -237 -367 0
1 237 -365 0
1 237 -243 0
1 -237 368 0
1 -369 365 0
1 -369 370 0
1 -249 -234 0
1 -249 371 0
1 -249 -240 0
1 249 -241 0
1 249 -236 0
1 249 372 0
1 -249 373 0
1 249 171 0
1 259 -364 0
1 -259 -154 0
1 -259 253 0
1 260 364 0
1 260 267 0
1 -260 -374 0
1 -260 -375 0
1 260 -154 0
1 -260 -263 0
1 -260 251 0
1 -267 -371 0
1 -267 236 0
1 267 -372 0
1 -267 -253 0
1 -371 -376 0
1 371 377 0
1 -371 267 0
1 371 378 0
1 371 365 0
1 -371 -272 0
1 -371 249 0
1 -373 259 0
1 373 365 0
1 373 379 0
1 -373 -249 0
1 -373 380 0
1 -364 -376 0
1 364 367 0
1 364 267 0
1 -364 379 0
1 364 381 0
1 -364 372 0
1 372 -382 0
1 -372 -260 0
1 372 -252 0
1 258 -256 0
1 258 375 0
1 258 -154 0
1 -258 383 0
1 -270 256 0
1 -270 154 0
1 -270 -162 0
1 270 -383 0
1 -270 152 0
1 -272 -256 0
1 272 377 0
1 -272 384 0
1 -272 257 0
1 377 -374 0
1 -377 375 0
1 -377 384 0
1 -377 -272 0
1 -377 -251 0
1 -377 261 0
1 -375 -268 0
1 375 377 0
1 375 270 0
1 383 268 0
1 -383 270 0
1 383 267 0
1 383 -375 0
1 383 -269 0
1 374 -377 0
1 374 240 0
1 374 260 0
1 -251 -376 0
1 251 267 0
1 -251 260 0
1 -251 385 0
1 -269 -268 0
1 269 384 0
1 269 379 0
1 -268 376 0
1 -268 -264 0
1 268 -384 0
1 268 162 0
1 268 266 0
1 -268 286 0
1 386 -387 0
1 386 264 0
1 386 -383 0
1 386 -266 0
1 284 -386 0
1 284 384 0
1 284 261 0
1 -284 257 0
1 -384 388 0
1 384 -289 0
1 -384 -279 0
1 -384 -291 0
1 384 -284 0
1 -257 268 0
1 -257 -377 0
1 -257 -386 0
1 389 -390 0
1 -389 391 0
1 389 -386 0
1 -389 -261 0
1 389 284 0
1 261 392 0
1 -261 -272 0
1 -261 393 0
1 -261 -284 0
1 279 387 0
1 -279 -394 0
1 279 277 0
1 -279 -257 0
1 -282 -387 0
1 -282 394 0
1 -282 -264 0
1 282 -182 0
1 -282 -395 0
1 282 -266 0
1 -282 278 0
1 289 384 0
1 -289 283 0
1 291 396 0
1 -291 289 0
1 291 271 0
1 291 395 0
1 -291 -283 0
1 291 -397 0
1 -395 -394 0
1 -395 -279 0
1 395 386 0
1 -395 160 0
1 -395 -290 0
1 394 -398 0
1 394 386 0
1 -394 -399 0
1 -394 290 0
1 -271 -387 0
1 -271 -279 0
1 -271 -386 0
1 -271 -162 0
1 -271 -400 0
1 -271 393 0
1 271 -284 0
1 387 -256 0
1 387 401 0
1 -387 -289 0
1 387 402 0
1 -387 -282 0
1 -288 -403 0
1 288 395 0
1 290 403 0
1 290 396 0
1 -290 288 0
1 -290 -283 0
1 290 393 0
1 290 277 0
1 398 403 0
1 398 -401 0
1 -398 -404 0
1 -398 -283 0
1 399 398 0
1 -399 405 0
1 396 -398 0
1 -396 -288 0
1 396 -406 0
1 -396 399 0
1 396 290 0
1 396 291 0
1 283 407 0
1 283 -399 0
1 283 290 0
1 283 -291 0
1 403 402 0
1 403 -399 0
1 403 -290 0
1 408 -409 0
1 410 -292 0
1 411 396 0
1 -411 406 0
1 411 -292 0
1 406 -396 0
1 -412 -411 0
1 412 408 0
1 412 -410 0
1 412 -399 0
1 412 -287 0
1 404 -411 0
1 -404 408 0
1 -404 -398 0
1 -404 410 0
1 292 -408 0
1 292 405 0
1 -292 406 0
1 -405 -411 0
1 -405 -406 0
1 -405 -410 0
1 -405 -399 0
1 -311 -413 0
1 -311 309 0
1 310 -413 0
1 -310 309 0
1 -310 313 0
1 -310 -304 0
1 310 301 0
1 -310 302 0
1 319 -318 0
1 -319 414 0
1 -319 -302 0
1 -318 -214 0
1 -318 -313 0
1 -318 -304 0
1 318 301 0
1 -318 -319 0
1 -318 302 0
1 -413 318 0
1 413 319 0
1 301 415 0
1 -301 311 0
1 -302 -296 0
1 -304 303 0
1 304 -416 0
1 -317 -413 0
1 -317 -307 0
1 -317 312 0
1 -317 -328 0
1 -320 -312 0
1 -320 -215 0
1 329 -413 0
1 -329 -417 0
1 329 -312 0
1 329 -418 0
1 329 328 0
1 329 -330 0
1 -330 -419 0
1 330 420 0
1 -330 -301 0
1 -330 414 0
1 330 -418 0
1 -330 -328 0
1 330 -332 0
1 -419 318 0
1 -419 -297 0
1 419 421 0
1 -414 -419 0
1 -414 -342 0
1 -414 -329 0
1 -414 317 0
1 -414 319 0
1 -414 -300 0
1 -414 422 0
1 414 -340 0
1 414 -320 0
1 417 -309 0
1 417 -422 0
1 -312 318 0
1 327 -423 0
1 -327 -197 0
1 -327 316 0
1 -327 414 0
1 -327 -321 0
1 327 -418 0
1 -327 -340 0
1 -327 324 0
1 340 414 0
1 342 -419 0
1 -342 420 0
1 -342 423 0
1 342 424 0
1 -336 420 0
1 -336 423 0
1 336 -333 0
1 -336 324 0
1 423 -348 0
1 423 334 0
1 -423 -307 0
1 423 -425 0
1 423 -352 0
1 423 -340 0
1 -418 -423 0
1 -418 426 0
1 418 427 0
1 -418 -352 0
1 -418 -314 0
1 -418 -340 0
1 -420 327 0
1 420 -427 0
1 -420 428 0
1 420 321 0
1 -321 -420 0
1 321 421 0
1 321 429 0
1 321 -327 0
1 -321 -329 0
1 -321 428 0
1 -321 308 0
1 334 424 0
1 334 205 0
1 334 418 0
1 -334 -430 0
1 -334 326 0
1 352 -323 0
1 352 -334 0
1 352 423 0
1 -352 -205 0
1 352 -422 0
1 348 424 0
1 348 -431 0
1 348 -337 0
1 425 -331 0
1 -425 -423 0
1 -425 424 0
1 -425 -431 0
1 -425 346 0
1 425 338 0
1 -425 -430 0
1 432 334 0
1 432 -359 0
1 -432 425 0
1 -432 336 0
1 326 348 0
1 -326 -433 0
1 -326 -336 0
1 -424 434 0
1 -424 334 0
1 424 -435 0
1 424 -425 0
1 430 -436 0
1 430 -437 0
1 430 -427 0
1 -430 -438 0
1 349 439 0
1 -349 335 0
1 -359 -349 0
1 -359 -432 0
1 -359 -238 0
1 359 431 0
1 359 339 0
1 359 -341 0
1 -359 326 0
1 -359 337 0
1 -440 -347 0
1 440 432 0
1 -440 441 0
1 440 335 0
1 440 326 0
1 440 337 0
1 -441 -439 0
1 -441 -432 0
1 441 247 0
1 -441 -335 0
1 -441 341 0
1 -441 337 0
1 431 348 0
1 -431 -441 0
1 -431 442 0
1 -431 443 0
1 -431 355 0
1 -439 -440 0
1 439 444 0
1 -439 -349 0
1 439 445 0
1 -439 -446 0
1 439 -357 0
1 -439 359 0
1 439 -355 0
1 -335 -440 0
1 -335 349 0
1 335 -348 0
1 -335 433 0
1 335 -333 0
1 335 -443 0
1 335 -447 0
1 337 448 0
1 337 -324 0
1 337 -441 0
1 -337 -335 0
1 355 431 0
1 -355 341 0
1 -357 439 0
1 -357 -347 0
1 357 -356 0
1 357 351 0
1 -357 -353 0
1 357 -431 0
1 357 -344 0
1 363 -439 0
1 363 350 0
1 363 -446 0
1 -363 449 0
1 446 -439 0
1 446 350 0
1 -446 -347 0
1 -446 -450 0
1 446 431 0
1 -446 -451 0
1 -452 440 0
1 -452 -453 0
1 452 -368 0
1 -347 440 0
1 -347 454 0
1 347 441 0
1 -347 455 0
1 347 -363 0
1 456 -445 0
1 -456 443 0
1 -456 -355 0
1 -350 453 0
1 -350 445 0
1 350 -357 0
1 350 456 0
1 -350 -443 0
1 -350 363 0
1 350 355 0
1 -368 -450 0
1 -368 353 0
1 -368 369 0
1 -368 -452 0
1 -368 -249 0
1 368 443 0
1 -368 360 0
1 -361 -347 0
1 -361 358 0
1 -361 369 0
1 361 -449 0
1 -455 -237 0
1 -455 -454 0
1 455 -450 0
1 455 457 0
1 -454 -267 0
1 454 -450 0
1 -454 -362 0
1 454 369 0
1 -449 458 0
1 -449 -367 0
1 -449 459 0
1 -449 -368 0
1 -450 454 0
1 -450 -446 0
1 450 381 0
1 -451 -454 0
1 -451 -361 0
1 -451 460 0
1 451 368 0
1 460 461 0
1 -460 453 0
1 -460 356 0
1 460 455 0
1 460 -451 0
1 460 -363 0
1 -462 -258 0
1 -462 -463 0
1 -462 -464 0
1 -367 -450 0
1 367 362 0
1 367 -372 0
1 367 -449 0
1 381 450 0
1 381 457 0
1 -381 370 0
1 -381 -465 0
1 -381 272 0
1 458 -377 0
1 -458 -457 0
1 458 362 0
1 -458 381 0
1 -464 -466 0
1 464 -381 0
1 -362 -367 0
1 -362 -358 0
1 -362 -467 0
1 -362 -468 0
1 -362 -379 0
1 -362 -469 0
1 463 461 0
1 -463 -470 0
1 -463 -459 0
1 -463 462 0
1 -463 -471 0
1 457 -461 0
1 -457 -470 0
1 -457 455 0
1 379 472 0
1 379 374 0
1 379 -269 0
1 379 -372 0
1 379 251 0
1 376 268 0
1 376 472 0
1 376 -374 0
1 376 -379 0
1 -376 -372 0
1 376 -373 0
1 376 464 0
1 468 -366 0
1 -468 473 0
1 468 378 0
1 468 -386 0
1 468 370 0
1 468 -382 0
1 468 251 0
1 469 -465 0
1 469 -464 0
1 -366 376 0
1 366 390 0
1 -366 -392 0
1 -366 -379 0
1 366 -381 0
1 -366 -385 0
1 366 -469 0
1 -465 -376 0
1 -465 390 0
1 -465 392 0
1 -465 -379 0
1 -465 385 0
1 472 474 0
1 -472 379 0
1 472 475 0
1 370 376 0
1 -370 476 0
1 370 369 0
1 -370 -468 0
1 -370 -469 0
1 392 -366 0
1 392 385 0
1 392 378 0
1 392 375 0
1 -392 -279 0
1 -392 382 0
1 -392 -383 0
1 -385 380 0
1 390 -366 0
1 -390 473 0
1 -390 474 0
1 -390 477 0
1 390 -380 0
1 -397 -382 0
1 397 478 0
1 -378 -479 0
1 378 401 0
1 -378 -371 0
1 378 -388 0
1 378 -390 0
1 378 -480 0
1 -380 378 0
1 -380 -390 0
1 -380 -392 0
1 -380 468 0
1 -380 400 0
1 -380 -393 0
1 473 481 0
1 473 -475 0
1 382 479 0
1 382 -390 0
1 -382 -372 0
1 -382 -482 0
1 382 -469 0
1 388 -288 0
1 -388 -378 0
1 388 483 0
1 -388 389 0
1 -393 -484 0
1 -401 -387 0
1 401 -483 0
1 -401 -477 0
1 -401 380 0
1 -401 -485 0
1 -400 483 0
1 400 380 0
1 -400 486 0
1 400 271 0
1 -400 482 0
1 400 -487 0
1 400 -484 0
1 400 485 0
1 -477 -401 0
1 -477 -390 0
1 -477 400 0
1 477 397 0
1 484 -401 0
1 484 383 0
1 484 407 0
1 -484 402 0
1 409 -387 0
1 -409 -408 0
1 409 -391 0
1 -409 486 0
1 -409 -271 0
1 -409 -402 0
1 409 -283 0
1 -402 -403 0
1 402 477 0
1 -402 -271 0
1 402 410 0
1 402 -395 0
1 -402 480 0
1 -402 -485 0
1 -488 -403 0
1 -488 407 0
1 -488 -283 0
1 -488 489 0
1 -407 -391 0
1 407 -406 0
1 486 -384 0
1 391 -409 0
1 391 -389 0
1 -391 -407 0
1 485 401 0
1 -485 -400 0
1 421 -417 0
1 421 -416 0
1 -421 -415 0
1 421 -312 0
1 422 -419 0
1 -422 312 0
1 422 321 0
1 -490 -491 0
1 490 -492 0
1 -490 420 0
1 -490 -415 0
1 490 493 0
1 428 -490 0
1 428 -493 0
1 492 436 0
1 492 494 0
1 492 421 0
1 -492 -428 0
1 -415 -492 0
1 -415 -437 0
1 415 427 0
1 -415 -495 0
1 415 -428 0
1 491 -421 0
1 -491 -416 0
1 -491 302 0
1 -416 421 0
1 -416 -304 0
1 416 -422 0
1 436 -424 0
1 -436 415 0
1 436 -427 0
1 -427 492 0
1 -427 -496 0
1 427 423 0
1 427 -415 0
1 -427 -497 0
1 -427 -321 0
1 -427 -430 0
1 498 -440 0
1 498 497 0
1 437 496 0
1 437 -441 0
1 -496 436 0
1 496 419 0
1 -496 -499 0
1 496 -500 0
1 -496 501 0
1 496 428 0
1 -493 498 0
1 -493 -490 0
1 -493 -496 0
1 502 503 0
1 -502 -427 0
1 497 -436 0
1 497 -502 0
1 497 -437 0
1 497 312 0
1 -497 -504 0
1 -497 -428 0
1 -497 -505 0
1 -434 496 0
1 -434 -433 0
1 -434 337 0
1 433 -424 0
1 -433 -357 0
1 -433 -429 0
1 -433 -326 0
1 447 -506 0
1 447 501 0
1 -447 -435 0
1 447 -493 0
1 501 -507 0
1 501 -446 0
1 501 435 0
1 501 -493 0
1 501 -447 0
1 -506 445 0
1 506 426 0
1 506 -508 0
1 -426 -418 0
1 426 433 0
1 -426 508 0
1 507 434 0
1 -507 -437 0
1 507 429 0
1 -507 -447 0
1 -429 -434 0
1 429 509 0
1 429 510 0
1 429 -437 0
1 -429 -511 0
1 443 439 0
1 -443 335 0
1 -443 426 0
1 -443 -505 0
1 443 -512 0
1 -445 361 0
1 -445 506 0
1 -445 438 0
1 445 -512 0
1 508 513 0
1 508 456 0
1 508 -438 0
1 -514 510 0
1 -514 506 0
1 -514 435 0
1 514 515 0
1 -514 456 0
1 -513 -512 0
1 -512 -516 0
1 -512 -501 0
1 -512 -508 0
1 -435 -516 0
1 -435 -509 0
1 435 445 0
1 -435 -517 0
1 435 -518 0
1 435 -508 0
1 435 -438 0
1 -438 -509 0
1 -438 -445 0
1 438 430 0
1 438 -435 0
1 -438 519 0
1 438 -518 0
1 438 -520 0
1 -438 -447 0
1 521 -460 0
1 521 -515 0
1 -521 512 0
1 453 -515 0
1 -522 -513 0
1 522 -519 0
1 522 451 0
1 523 458 0
1 -523 -524 0
1 523 460 0
1 -523 -515 0
1 -442 -523 0
1 -442 -514 0
1 -442 525 0
1 442 470 0
1 -442 459 0
1 -442 -526 0
1 -442 -508 0
1 442 527 0
1 444 528 0
1 444 -470 0
1 -444 -522 0
1 444 -527 0
1 515 -448 0
1 -515 -453 0
1 -515 525 0
1 -448 -523 0
1 448 -525 0
1 -448 -529 0
1 448 -517 0
1 -448 -521 0
1 448 -508 0
1 -461 -460 0
1 461 450 0
1 461 -442 0
1 -461 530 0
1 -461 531 0
1 461 -451 0
1 -470 -524 0
1 470 -532 0
1 -470 533 0
1 470 529 0
1 470 -530 0
1 470 -463 0
1 528 444 0
1 -528 532 0
1 528 534 0
1 -531 528 0
1 531 461 0
1 -531 523 0
1 -531 -452 0
1 535 -523 0
1 535 -476 0
1 -535 459 0
1 535 536 0
1 -530 -459 0
1 530 -537 0
1 -530 -538 0
1 530 527 0
1 524 461 0
1 524 -539 0
1 524 536 0
1 -524 538 0
1 -476 535 0
1 476 533 0
1 476 362 0
1 476 -525 0
1 476 463 0
1 471 -535 0
1 -471 533 0
1 471 -362 0
1 471 -463 0
1 -474 -535 0
1 -474 -390 0
1 -474 539 0
1 474 467 0
1 -474 370 0
1 474 534 0
1 -478 535 0
1 478 533 0
1 -478 -534 0
1 -478 540 0
1 -540 528 0
1 540 541 0
1 540 -533 0
1 540 -482 0
1 533 -450 0
1 -533 -542 0
1 533 -482 0
1 533 478 0
1 533 -540 0
1 534 541 0
1 -534 -532 0
1 -534 474 0
1 534 451 0
1 -534 471 0
1 -532 528 0
1 -532 -541 0
1 532 -474 0
1 -532 -476 0
1 -532 543 0
1 -532 -536 0
1 -544 -388 0
1 544 467 0
1 544 -540 0
1 544 -545 0
1 475 -546 0
1 475 467 0
1 475 370 0
1 -475 465 0
1 475 -536 0
1 481 -547 0
1 481 -473 0
1 -481 401 0
1 -481 467 0
1 481 548 0
1 -481 382 0
1 -481 -482 0
1 482 533 0
1 -482 467 0
1 -482 -400 0
1 -482 540 0
1 -466 481 0
1 -466 549 0
1 -466 -475 0
1 -466 464 0
1 -467 -549 0
1 467 -480 0
1 -545 -541 0
1 -545 546 0
1 545 -482 0
1 -545 -463 0
1 -546 -541 0
1 -546 -481 0
1 -546 -475 0
1 -479 466 0
1 479 -409 0
1 479 483 0
1 480 -483 0
1 -480 542 0
1 -480 -380 0
1 550 551 0
1 -550 -483 0
1 550 -548 0
1 549 -466 0
1 549 483 0
1 -547 -366 0
1 -547 479 0
1 -547 -549 0
1 547 -482 0
1 548 -481 0
1 551 -481 0
1 505 494 0
1 505 -502 0
1 -505 -507 0
1 505 -497 0
1 505 493 0
1 500 -494 0
1 500 496 0
1 500 -552 0
1 500 -495 0
1 -500 505 0
1 511 494 0
1 -511 -507 0
1 -511 510 0
1 511 495 0
1 511 -508 0
1 -510 -553 0
1 -510 -503 0
1 -510 514 0
1 -510 552 0
1 510 -511 0
1 494 510 0
1 -494 519 0
1 494 -518 0
1 495 510 0
1 495 -500 0
1 -553 -491 0
1 553 -552 0
1 553 -505 0
1 552 -553 0
1 552 510 0
1 -552 -500 0
1 -552 -416 0
1 -552 -554 0
1 552 511 0
1 -518 503 0
1 509 -494 0
1 -509 -453 0
1 509 -435 0
1 509 -495 0
1 509 -555 0
1 -519 -503 0
1 -519 -555 0
1 -556 -519 0
1 -556 -438 0
1 -499 -556 0
1 499 557 0
1 -499 519 0
1 499 558 0
1 555 509 0
1 -555 510 0
1 -555 517 0
1 -555 -493 0
1 -555 -559 0
1 -555 -518 0
1 -555 -511 0
1 -555 -558 0
1 -503 504 0
1 504 -519 0
1 -504 -518 0
1 504 -511 0
1 -517 -448 0
1 517 516 0
1 517 499 0
1 -517 560 0
1 517 513 0
1 517 515 0
1 -517 459 0
1 -517 -555 0
1 -517 -561 0
1 -517 -512 0
1 -516 -515 0
1 516 -555 0
1 516 562 0
1 -529 -563 0
1 -529 -564 0
1 -529 -515 0
1 -529 -555 0
1 -529 -561 0
1 -563 499 0
1 563 -564 0
1 563 555 0
1 564 -565 0
1 -564 -527 0
1 -562 539 0
1 562 -529 0
1 562 519 0
1 560 516 0
1 560 -507 0
1 560 519 0
1 560 -565 0
1 -560 566 0
1 -561 -567 0
1 561 -568 0
1 -561 557 0
1 561 -517 0
1 -561 -565 0
1 -561 558 0
1 -525 476 0
1 525 530 0
1 -525 -562 0
1 -527 569 0
1 527 -442 0
1 -527 -562 0
1 -539 570 0
1 539 -564 0
1 539 -568 0
1 539 571 0
1 -539 -569 0
1 539 526 0
1 -539 538 0
1 -538 -570 0
1 538 -572 0
1 -538 -524 0
1 -538 520 0
1 538 -478 0
1 -538 -566 0
1 569 573 0
1 569 -574 0
1 569 513 0
1 569 -575 0
1 -575 563 0
1 -575 -574 0
1 575 512 0
1 575 543 0
1 -571 -563 0
1 -571 -573 0
1 -571 435 0
1 520 -576 0
1 520 577 0
1 -520 -565 0
1 -578 -572 0
1 578 544 0
1 -578 567 0
1 578 -530 0
1 -536 572 0
1 536 532 0
1 -536 -531 0
1 574 579 0
1 574 -580 0
1 574 -526 0
1 543 574 0
1 -543 569 0
1 543 -526 0
1 -543 537 0
1 -543 575 0
1 -526 581 0
1 526 578 0
1 -526 -539 0
1 526 -542 0
1 -526 -538 0
1 -572 541 0
1 -572 -582 0
1 -580 576 0
1 580 -536 0
1 -580 538 0
1 -570 -573 0
1 570 543 0
1 -570 538 0
1 -541 -572 0
1 541 583 0
1 541 -479 0
1 541 573 0
1 541 -533 0
1 -541 -546 0
1 541 -526 0
1 541 537 0
1 541 -584 0
1 -541 -534 0
1 -542 -585 0
1 -542 -546 0
1 542 -526 0
1 -542 537 0
1 -542 -540 0
1 -581 -583 0
1 -581 -586 0
1 -581 -584 0
1 -582 549 0
1 -582 -526 0
1 -582 537 0
1 -582 584 0
1 -584 581 0
1 584 585 0
1 584 582 0
1 -585 535 0
1 585 -584 0
1 -585 -542 0
1 537 582 0
1 583 -582 0
1 -583 542 0
1 -557 -499 0
1 557 -525 0
1 557 -504 0
1 -557 -555 0
1 -557 561 0
1 557 558 0
1 -558 560 0
1 558 -504 0
1 -568 -587 0
1 568 -554 0
1 -566 588 0
1 566 -589 0
1 566 590 0
1 566 538 0
1 -587 567 0
1 -587 -568 0
1 -588 -553 0
1 -588 -566 0
1 554 -588 0
1 554 -552 0
1 554 566 0
1 -567 587 0
1 567 -589 0
1 -567 578 0
1 567 -591 0
1 -567 -590 0
1 567 561 0
1 -565 559 0
1 -565 564 0
1 565 567 0
1 565 571 0
1 565 -591 0
1 -565 536 0
1 -579 587 0
1 -579 592 0
1 579 593 0
1 -579 591 0
1 579 559 0
1 -577 -589 0
1 577 -559 0
1 -577 593 0
1 -577 -520 0
1 -589 -579 0
1 -589 559 0
1 -589 -594 0
1 559 579 0
1 -559 567 0
1 -559 -577 0
1 -559 565 0
1 592 -565 0
1 592 566 0
1 -590 -579 0
1 590 -504 0
1 573 589 0
1 573 -559 0
1 -573 -571 0
1 -576 -589 0
1 -576 571 0
1 -576 559 0
1 -576 520 0
1 -576 575 0
1 586 -595 0
1 586 580 0
1 -586 -596 0
1 594 586 0
1 -594 589 0
1 -594 559 0
1 -594 -596 0
1 -597 564 0
1 597 -577 0
1 -597 596 0
1 596 -597 0
1 -595 -586 0
1 595 560 0
1 -595 -593 0
1 -593 -579 0
1 593 595 0
1 -593 594 0
1 -593 576 0
1 593 561 0
